Running for instance ./models/rc105.txt
Generating routes...
Atingindo numero maximo de execucoes. abrindo alpha
Maximo de execucoes sem resultados atingido.
Execution time:  3.70805813333  minutes
Academic license - for non-commercial use only
Warning: constraint name "Cliente esta na rota" has a space
Optimize a model with 26 rows, 1368 columns and 8188 nonzeros
Variable types: 0 continuous, 1368 integer (0 binary)
Coefficient statistics:
  Matrix range     [1e+00, 1e+00]
  Objective range  [7e+01, 2e+02]
  Bounds range     [1e+00, 1e+00]
  RHS range        [1e+00, 2e+01]
Found heuristic solution: objective 1074.4386734
Presolve removed 0 rows and 903 columns
Presolve time: 0.01s
Presolved: 26 rows, 465 columns, 2538 nonzeros
Found heuristic solution: objective 921.4403459
Variable types: 0 continuous, 465 integer (465 binary)

Root relaxation: objective 6.544978e+02, 40 iterations, 0.00 seconds

    Nodes    |    Current Node    |     Objective Bounds      |     Work
 Expl Unexpl |  Obj  Depth IntInf | Incumbent    BestBd   Gap | It/Node Time

*    0     0               0     654.4977982  654.49780  0.00%     -    0s

Explored 0 nodes (40 simplex iterations) in 0.01 seconds
Thread count was 8 (of 8 available processors)

Solution count 3: 654.498 921.44 936.167 

Optimal solution found (tolerance 1.00e-04)
Best objective 6.544977982418e+02, best bound 6.544977982418e+02, gap 0.0000%
15
23
19
11 10 12
22 20 24
14 16 9
2 7 8 6 5 4 3
Distance: 654.497798242
Execution time:  3.70980095  minutes
